6,30
19,169,142,141,77,187,33,91,5,57,30,105,82,1,149,143,181,198,71,164,186,183,6,43,5,53,104,59,74,6
53,18,165,67,56,37,151,82,11,158,154,161,122,107,156,152,18,135,71,57,194,79,33,175,111,59,127,24,118,174
